\ Model Routes
\ LP format - for model browsing. Use MPS format to capture full model detail.
Maximize
  1134.740277764186 R{0,0} + 1809.946165863534 R{0,1}
   + 2009.405162469049 R{0,2} - 119.1319634799971 R{0,3}
   + 346.8152811971844 R{0,4} + 997.5617816713998 R{0,5}
   + 692.8730607239129 R{0,6} + 1517.53920638457 R{0,7}
   + 816.6820507131732 R{0,8} + 595.5784218025436 R{0,9}
   + 560.2644414239232 R{0,10} + 1009.581193003319 R{0,11}
   + 762.5355258173175 R{0,12} + 887.7832668448573 R{0,13}
   + 1053.95332028872 R{0,14} + 874.0256688457159 R{0,15}
   + 1078.456698698768 R{0,16} + 1334.1992743697 R{0,17}
   + 1014.280735481377 R{0,18} + 1072.620926885618 R{0,19}
   + 782.403832726987 R{0,20} + 1408.55721042037 R{0,21}
   + 1298.266885540708 R{0,22} + 1264.32472793196 R{0,23}
   + 2207.827695156634 R{0,24} + 1533.868681591548 R{0,25}
   + 1652.934229852631 R{0,26} + 1112.975306374461 R{1,0}
   + 1136.675872982913 R{1,1} + 1650.703448134914 R{1,2}
   - 207.8100186194083 R{1,3} + 801.4303812316061 R{1,4}
   + 1475.037472075088 R{1,5} + 1788.752922084355 R{1,6}
   + 1124.899501566966 R{1,7} + 1249.046694274277 R{1,8}
   + 567.9765382609557 R{1,9} + 1224.607629462783 R{1,10}
   + 1109.950832182072 R{1,11} + 1138.024805638489 R{1,12}
   + 1248.114196789606 R{1,13} + 486.8212257074508 R{1,14}
   + 1496.438873348651 R{1,15} + 1769.955411626627 R{1,16}
   + 1506.491577359047 R{1,17} + 1016.599367068883 R{1,18}
   + 1229.028529893453 R{1,19} + 1496.438873348651 R{1,20}
   + 1836.99289886889 R{1,21} + 952.4312368722051 R{1,22}
   + 1168.376318506793 R{1,23} + 2229.55850173957 R{1,24}
   + 1213.557118761258 R{1,25} + 691.0196681251575 R{2,0}
   + 1335.730047001479 R{2,1} + 1792.786200976873 R{2,2}
   - 87.24034700926869 R{2,3} + 2128.040607510822 R{2,4}
   + 2637.809201722528 R{2,5} + 3068.990013910287 R{2,6}
   + 170.6494056181694 R{2,7} + 934.0910467534482 R{2,8}
   + 1112.157404916771 R{2,9} + 169.2629824431648 R{2,10}
   + 1209.994083217538 R{2,11} + 1854.985187625488 R{2,12}
   + 439.9094159859827 R{2,13} + 616.389376989106 R{2,14}
   + 1736.593882951464 R{2,15} + 1634.071104391106 R{2,16}
   + 781.2299902408485 R{2,17} + 928.1938485460719 R{2,18}
   + 1652.681192545575 R{2,19} + 999.7140596151175 R{2,20}
   + 955.1791080292533 R{2,21} + 1691.648324908244 R{2,22}
   + 672.0658217876457 R{2,23} + 479.1534884126024 R{2,24}
   + 856.0564691291041 R{2,25} + 865.3532655432755 R{2,26}
   + 643.1685702397141 R{2,27} + 1658.39520251164 R{2,28}
   + 1160.208008932284 R{2,29} + 1336.954874873594 R{2,30}
   + 1133.962020503853 R{2,31} + 1786.659965282848 R{2,32}
   + 2347.824697290571 R{2,33} + 1875.083934926281 R{2,34}
   + 1332.301865911604 R{2,35} + 1160.871521646417 R{2,36}
   + 1651.311701725483 R{2,37} + 878.2725436118214 R{2,38}
   + 1774.890827783455 R{2,39} + 1831.790087718502 R{2,40}
   + 898.4843943197709 R{3,0} + 3087.170069915334 R{3,1}
   + 3340.939088541748 R{3,2} - 91.47456976776279 R{3,3}
   - 131.2316172490808 R{3,4} + 542.4200449469281 R{3,5}
   + 1165.636610577954 R{3,6} + 456.2025261182448 R{3,7}
   + 81.01394098534769 R{3,8} + 16.41600005642729 R{3,9}
   + 1254.6126308987 R{3,10} + 727.1155759405165 R{3,11}
   + 1084.74933589493 R{3,12} + 1003.882548463878 R{3,13}
   + 2386.416718702084 R{3,14} + 1371.93487445669 R{3,15}
   + 778.3489081995378 R{3,16} + 822.5397821329968 R{3,17}
   + 1082.989610287831 R{3,18} + 855.2157734617997 R{3,19}
   + 1087.384042796446 R{3,20} + 1758.75668022707 R{3,21}
   + 735.6349334334498 R{3,22} + 969.6832463924494 R{3,23}
   + 1030.999249848321 R{3,24} + 913.0318901745246 R{3,25}
   + 2664.926404392096 R{3,26} + 1163.0181421953 R{3,27}
   + 604.8799297597559 R{3,28} + 308.2876534979164 R{4,0}
   + 1643.843677649133 R{4,1} + 1923.601763040498 R{4,2}
   - 118.9186664284507 R{4,3} + 674.4912423316493 R{4,4}
   + 678.0715781373173 R{4,5} + 1281.705553506862 R{4,6}
   + 382.4463278643233 R{4,7} + 313.1516455303472 R{4,8}
   + 866.8987347235502 R{4,9} + 216.1596775227121 R{4,10}
   + 1193.113176316014 R{4,11} + 544.5326706604262 R{4,12}
   + 856.6035376518157 R{4,13} + 551.0396192026399 R{4,14}
   + 563.6077958352328 R{4,15} + 338.6842582054652 R{4,16}
   + 278.0951438649718 R{4,17} + 307.5736930683842 R{4,18}
   + 425.9040044106739 R{4,19} + 899.8984522377705 R{4,20}
   + 210.2308748564374 R{4,21} + 224.9329243481621 R{4,22}
   + 747.5830135443482 R{4,23} + 479.2598717183358 R{4,24}
   + 1080.58505664626 R{4,25} + 621.6200872013987 R{4,26}
   + 731.8404950297588 R{4,27} + 859.0325662526335 R{4,28}
   + 1083.610014517207 R{4,29} + 1382.025811055039 R{4,30}
   + 1050.956878260306 R{4,31} + 1412.371204470384 R{4,32}
   + 753.5283306173196 R{4,33} + 1212.589824734036 R{4,34}
   - 0.3632124796954699 R{5,0} + 657.4849681595483 R{5,1}
   + 1216.396942041225 R{5,2} - 74.85334299445449 R{5,3}
   + 109.4974609602233 R{5,4} + 779.0033714141583 R{5,5}
   + 1296.8266370207 R{5,6} + 368.1217467350689 R{5,7}
   + 137.7111120354645 R{5,8} + 243.913378052648 R{5,9}
   + 1110.445755038176 R{5,10} + 25.11765855719624 R{5,11}
   + 236.8431864597088 R{5,12} + 471.375782458422 R{5,13}
   + 564.8755867691291 R{5,14} + 283.5761690933023 R{5,15}
   + 139.3523296871373 R{5,16} + 501.9923136808306 R{5,17}
   + 457.634115196489 R{5,18} + 349.8393385261812 R{5,19}
   + 719.1415681141465 R{5,20} + 1350.82977515984 R{5,21}
   + 172.2181261334399 R{5,22} + 1438.418489622458 R{5,23}
   + 603.2806324512253 R{5,24} + 520.5674916235947 R{5,25}
   + 1009.478283118326 R{5,26} + 675.7393084774612 R{5,27}
   + 1121.061963307872 R{6,0} + 2852.719335947362 R{6,1}
   + 3031.562034323787 R{6,2} - 126.1649536568209 R{6,3}
   + 1038.926453438376 R{6,4} + 1771.795229637154 R{6,5}
   + 2036.953276018937 R{6,6} + 943.8444082748423 R{6,7}
   + 563.9388055785113 R{6,8} + 1068.1986006514 R{6,9}
   + 1264.918366576115 R{6,10} + 736.6957731606246 R{6,11}
   + 534.0584476648862 R{6,12} + 662.6219581831967 R{6,13}
   + 220.2661695396247 R{6,14} + 186.5247591591341 R{6,15}
   + 1160.868133762546 R{6,16} + 700.831791701436 R{6,17}
   + 1074.975474582984 R{6,18} + 111.162996578983 R{6,19}
   + 1327.255964923023 R{6,20} + 655.556191036124 R{6,21}
   + 889.0803965202507 R{6,22} + 1119.611553963095 R{6,23}
   + 980.9274205880931 R{6,24} + 1358.579500291611 R{6,25}
   + 1557.314984362075 R{6,26} + 1587.780481642232 R{6,27}
   + 1121.061963307872 R{6,28} + 424.6236831807988 R{6,29}
   + 1211.644468916988 R{6,30} + 1694.97841166496 R{6,31}
   + 849.3570924621386 R{6,32} + 1656.650224364944 R{6,33}
   + 1734.060667023457 R{6,34} + 1184.513088245362 R{6,35}
Subject To
 R00: R{0,0} <= 1
 R01: R{0,1} <= 1
 R02: R{0,2} <= 1
 R03: R{0,3} <= 1
 R04: R{0,4} <= 1
 R05: R{0,5} <= 1
 R06: R{0,6} <= 1
 R07: R{0,7} <= 1
 R08: R{0,8} <= 1
 R09: R{0,9} <= 1
 R010: R{0,10} <= 1
 R011: R{0,11} <= 1
 R012: R{0,12} <= 1
 R013: R{0,13} <= 1
 R014: R{0,14} <= 1
 R015: R{0,15} <= 1
 R016: R{0,16} <= 1
 R017: R{0,17} <= 1
 R018: R{0,18} <= 1
 R019: R{0,19} <= 1
 R020: R{0,20} <= 1
 R021: R{0,21} <= 1
 R022: R{0,22} <= 1
 R023: R{0,23} <= 1
 R024: R{0,24} <= 1
 R025: R{0,25} <= 1
 R026: R{0,26} <= 1
 R027: R{1,0} <= 1
 R028: R{1,1} <= 1
 R029: R{1,2} <= 1
 R030: R{1,3} <= 1
 R031: R{1,4} <= 1
 R032: R{1,5} <= 1
 R033: R{1,6} <= 1
 R034: R{1,7} <= 1
 R035: R{1,8} <= 1
 R036: R{1,9} <= 1
 R037: R{1,10} <= 1
 R038: R{1,11} <= 1
 R039: R{1,12} <= 1
 R040: R{1,13} <= 1
 R041: R{1,14} <= 1
 R042: R{1,15} <= 1
 R043: R{1,16} <= 1
 R044: R{1,17} <= 1
 R045: R{1,18} <= 1
 R046: R{1,19} <= 1
 R047: R{1,20} <= 1
 R048: R{1,21} <= 1
 R049: R{1,22} <= 1
 R050: R{1,23} <= 1
 R051: R{1,24} <= 1
 R052: R{1,25} <= 1
 R053: R{2,0} <= 1
 R054: R{2,1} <= 1
 R055: R{2,2} <= 1
 R056: R{2,3} <= 1
 R057: R{2,4} <= 1
 R058: R{2,5} <= 1
 R059: R{2,6} <= 1
 R060: R{2,7} <= 1
 R061: R{2,8} <= 1
 R062: R{2,9} <= 1
 R063: R{2,10} <= 1
 R064: R{2,11} <= 1
 R065: R{2,12} <= 1
 R066: R{2,13} <= 1
 R067: R{2,14} <= 1
 R068: R{2,15} <= 1
 R069: R{2,16} <= 1
 R070: R{2,17} <= 1
 R071: R{2,18} <= 1
 R072: R{2,19} <= 1
 R073: R{2,20} <= 1
 R074: R{2,21} <= 1
 R075: R{2,22} <= 1
 R076: R{2,23} <= 1
 R077: R{2,24} <= 1
 R078: R{2,25} <= 1
 R079: R{2,26} <= 1
 R080: R{2,27} <= 1
 R081: R{2,28} <= 1
 R082: R{2,29} <= 1
 R083: R{2,30} <= 1
 R084: R{2,31} <= 1
 R085: R{2,32} <= 1
 R086: R{2,33} <= 1
 R087: R{2,34} <= 1
 R088: R{2,35} <= 1
 R089: R{2,36} <= 1
 R090: R{2,37} <= 1
 R091: R{2,38} <= 1
 R092: R{2,39} <= 1
 R093: R{2,40} <= 1
 R094: R{3,0} <= 1
 R095: R{3,1} <= 1
 R096: R{3,2} <= 1
 R097: R{3,3} <= 1
 R098: R{3,4} <= 1
 R099: R{3,5} <= 1
 R0100: R{3,6} <= 1
 R0101: R{3,7} <= 1
 R0102: R{3,8} <= 1
 R0103: R{3,9} <= 1
 R0104: R{3,10} <= 1
 R0105: R{3,11} <= 1
 R0106: R{3,12} <= 1
 R0107: R{3,13} <= 1
 R0108: R{3,14} <= 1
 R0109: R{3,15} <= 1
 R0110: R{3,16} <= 1
 R0111: R{3,17} <= 1
 R0112: R{3,18} <= 1
 R0113: R{3,19} <= 1
 R0114: R{3,20} <= 1
 R0115: R{3,21} <= 1
 R0116: R{3,22} <= 1
 R0117: R{3,23} <= 1
 R0118: R{3,24} <= 1
 R0119: R{3,25} <= 1
 R0120: R{3,26} <= 1
 R0121: R{3,27} <= 1
 R0122: R{3,28} <= 1
 R0123: R{4,0} <= 1
 R0124: R{4,1} <= 1
 R0125: R{4,2} <= 1
 R0126: R{4,3} <= 1
 R0127: R{4,4} <= 1
 R0128: R{4,5} <= 1
 R0129: R{4,6} <= 1
 R0130: R{4,7} <= 1
 R0131: R{4,8} <= 1
 R0132: R{4,9} <= 1
 R0133: R{4,10} <= 1
 R0134: R{4,11} <= 1
 R0135: R{4,12} <= 1
 R0136: R{4,13} <= 1
 R0137: R{4,14} <= 1
 R0138: R{4,15} <= 1
 R0139: R{4,16} <= 1
 R0140: R{4,17} <= 1
 R0141: R{4,18} <= 1
 R0142: R{4,19} <= 1
 R0143: R{4,20} <= 1
 R0144: R{4,21} <= 1
 R0145: R{4,22} <= 1
 R0146: R{4,23} <= 1
 R0147: R{4,24} <= 1
 R0148: R{4,25} <= 1
 R0149: R{4,26} <= 1
 R0150: R{4,27} <= 1
 R0151: R{4,28} <= 1
 R0152: R{4,29} <= 1
 R0153: R{4,30} <= 1
 R0154: R{4,31} <= 1
 R0155: R{4,32} <= 1
 R0156: R{4,33} <= 1
 R0157: R{4,34} <= 1
 R0158: R{5,0} <= 1
 R0159: R{5,1} <= 1
 R0160: R{5,2} <= 1
 R0161: R{5,3} <= 1
 R0162: R{5,4} <= 1
 R0163: R{5,5} <= 1
 R0164: R{5,6} <= 1
 R0165: R{5,7} <= 1
 R0166: R{5,8} <= 1
 R0167: R{5,9} <= 1
 R0168: R{5,10} <= 1
 R0169: R{5,11} <= 1
 R0170: R{5,12} <= 1
 R0171: R{5,13} <= 1
 R0172: R{5,14} <= 1
 R0173: R{5,15} <= 1
 R0174: R{5,16} <= 1
 R0175: R{5,17} <= 1
 R0176: R{5,18} <= 1
 R0177: R{5,19} <= 1
 R0178: R{5,20} <= 1
 R0179: R{5,21} <= 1
 R0180: R{5,22} <= 1
 R0181: R{5,23} <= 1
 R0182: R{5,24} <= 1
 R0183: R{5,25} <= 1
 R0184: R{5,26} <= 1
 R0185: R{5,27} <= 1
 R0186: R{6,0} <= 1
 R0187: R{6,1} <= 1
 R0188: R{6,2} <= 1
 R0189: R{6,3} <= 1
 R0190: R{6,4} <= 1
 R0191: R{6,5} <= 1
 R0192: R{6,6} <= 1
 R0193: R{6,7} <= 1
 R0194: R{6,8} <= 1
 R0195: R{6,9} <= 1
 R0196: R{6,10} <= 1
 R0197: R{6,11} <= 1
 R0198: R{6,12} <= 1
 R0199: R{6,13} <= 1
 R0200: R{6,14} <= 1
 R0201: R{6,15} <= 1
 R0202: R{6,16} <= 1
 R0203: R{6,17} <= 1
 R0204: R{6,18} <= 1
 R0205: R{6,19} <= 1
 R0206: R{6,20} <= 1
 R0207: R{6,21} <= 1
 R0208: R{6,22} <= 1
 R0209: R{6,23} <= 1
 R0210: R{6,24} <= 1
 R0211: R{6,25} <= 1
 R0212: R{6,26} <= 1
 R0213: R{6,27} <= 1
 R0214: R{6,28} <= 1
 R0215: R{6,29} <= 1
 R0216: R{6,30} <= 1
 R0217: R{6,31} <= 1
 R0218: R{6,32} <= 1
 R0219: R{6,33} <= 1
 R0220: R{6,34} <= 1
 R0221: R{6,35} <= 1
 R1_0: R{0,0} + R{0,1} + R{0,2} + R{0,3} + R{0,4} + R{0,5} + R{0,6}
   + R{0,7} + R{0,8} + R{0,9} + R{0,10} + R{0,11} + R{0,12} + R{0,13}
   + R{0,14} + R{0,15} + R{0,16} + R{0,17} + R{0,18} + R{0,19} + R{0,20}
   + R{0,21} + R{0,22} + R{0,23} + R{0,24} + R{0,25} + R{0,26} <= 1
 R1_1: R{1,0} + R{1,1} + R{1,2} + R{1,3} + R{1,4} + R{1,5} + R{1,6}
   + R{1,7} + R{1,8} + R{1,9} + R{1,10} + R{1,11} + R{1,12} + R{1,13}
   + R{1,14} + R{1,15} + R{1,16} + R{1,17} + R{1,18} + R{1,19} + R{1,20}
   + R{1,21} + R{1,22} + R{1,23} + R{1,24} + R{1,25} <= 1
 R1_2: R{2,0} + R{2,1} + R{2,2} + R{2,3} + R{2,4} + R{2,5} + R{2,6}
   + R{2,7} + R{2,8} + R{2,9} + R{2,10} + R{2,11} + R{2,12} + R{2,13}
   + R{2,14} + R{2,15} + R{2,16} + R{2,17} + R{2,18} + R{2,19} + R{2,20}
   + R{2,21} + R{2,22} + R{2,23} + R{2,24} + R{2,25} + R{2,26} + R{2,27}
   + R{2,28} + R{2,29} + R{2,30} + R{2,31} + R{2,32} + R{2,33} + R{2,34}
   + R{2,35} + R{2,36} + R{2,37} + R{2,38} + R{2,39} + R{2,40} <= 1
 R1_3: R{3,0} + R{3,1} + R{3,2} + R{3,3} + R{3,4} + R{3,5} + R{3,6}
   + R{3,7} + R{3,8} + R{3,9} + R{3,10} + R{3,11} + R{3,12} + R{3,13}
   + R{3,14} + R{3,15} + R{3,16} + R{3,17} + R{3,18} + R{3,19} + R{3,20}
   + R{3,21} + R{3,22} + R{3,23} + R{3,24} + R{3,25} + R{3,26} + R{3,27}
   + R{3,28} <= 1
 R1_4: R{4,0} + R{4,1} + R{4,2} + R{4,3} + R{4,4} + R{4,5} + R{4,6}
   + R{4,7} + R{4,8} + R{4,9} + R{4,10} + R{4,11} + R{4,12} + R{4,13}
   + R{4,14} + R{4,15} + R{4,16} + R{4,17} + R{4,18} + R{4,19} + R{4,20}
   + R{4,21} + R{4,22} + R{4,23} + R{4,24} + R{4,25} + R{4,26} + R{4,27}
   + R{4,28} + R{4,29} + R{4,30} + R{4,31} + R{4,32} + R{4,33} + R{4,34}
   <= 1
 R1_5: R{5,0} + R{5,1} + R{5,2} + R{5,3} + R{5,4} + R{5,5} + R{5,6}
   + R{5,7} + R{5,8} + R{5,9} + R{5,10} + R{5,11} + R{5,12} + R{5,13}
   + R{5,14} + R{5,15} + R{5,16} + R{5,17} + R{5,18} + R{5,19} + R{5,20}
   + R{5,21} + R{5,22} + R{5,23} + R{5,24} + R{5,25} + R{5,26} + R{5,27}
   <= 1
 R1_6: R{6,0} + R{6,1} + R{6,2} + R{6,3} + R{6,4} + R{6,5} + R{6,6}
   + R{6,7} + R{6,8} + R{6,9} + R{6,10} + R{6,11} + R{6,12} + R{6,13}
   + R{6,14} + R{6,15} + R{6,16} + R{6,17} + R{6,18} + R{6,19} + R{6,20}
   + R{6,21} + R{6,22} + R{6,23} + R{6,24} + R{6,25} + R{6,26} + R{6,27}
   + R{6,28} + R{6,29} + R{6,30} + R{6,31} + R{6,32} + R{6,33} + R{6,34}
   + R{6,35} <= 1
 R2_0: 7 R{0,0} + 7 R{0,1} + 7 R{0,2} + 7 R{0,7} + 7 R{0,9} + 7 R{0,11}
   + 7 R{0,12} + 7 R{0,13} + 7 R{0,17} + 7 R{0,19} + 7 R{0,22} + 7 R{0,24}
   + 7 R{0,25} + 7 R{0,26} + 7 R{2,4} + 7 R{2,5} + 7 R{2,6} + 7 R{2,9}
   + 7 R{2,12} + 7 R{2,16} + 7 R{2,18} + 7 R{2,22} + 7 R{2,32} + 7 R{2,34}
   + 7 R{2,37} + 7 R{2,39} + 7 R{2,40} + 7 R{3,2} + 7 R{3,14} + 7 R{3,26}
   + 7 R{4,34} + 7 R{6,2} + 7 R{6,10} <= 7
 R2_1: 10 R{1,0} + 10 R{1,1} + 10 R{1,2} + 10 R{1,4} + 10 R{1,5}
   + 10 R{1,6} + 10 R{1,7} + 10 R{1,8} + 10 R{1,11} + 10 R{1,13}
   + 10 R{1,15} + 10 R{1,16} + 10 R{1,17} + 10 R{1,18} + 10 R{1,19}
   + 10 R{1,20} + 10 R{1,21} + 10 R{1,22} + 10 R{1,23} + 10 R{1,24}
   + 10 R{1,25} + 10 R{2,2} + 10 R{2,5} + 10 R{2,6} + 10 R{2,14}
   + 10 R{2,28} + 10 R{2,35} + 10 R{2,39} + 10 R{2,40} + 10 R{3,1}
   + 10 R{3,2} + 10 R{3,14} + 10 R{3,15} + 10 R{3,21} + 10 R{3,26}
   + 10 R{5,25} + 10 R{6,1} + 10 R{6,2} + 10 R{6,9} + 10 R{6,20}
   + 10 R{6,34} <= 10
 R2_2: 13 R{0,25} + 13 R{2,37} + 13 R{2,40} + 13 R{3,26} + 13 R{4,4}
   + 13 R{4,5} + 13 R{4,6} + 13 R{4,7} + 13 R{4,8} + 13 R{4,10}
   + 13 R{4,12} + 13 R{4,20} + 13 R{4,21} + 13 R{4,22} + 13 R{4,24}
   + 13 R{4,25} + 13 R{4,26} + 13 R{4,27} + 13 R{6,0} + 13 R{6,1}
   + 13 R{6,9} + 13 R{6,16} + 13 R{6,19} + 13 R{6,20} + 13 R{6,21}
   + 13 R{6,23} + 13 R{6,25} + 13 R{6,26} + 13 R{6,27} + 13 R{6,28}
   + 13 R{6,29} + 13 R{6,30} + 13 R{6,31} + 13 R{6,33} + 13 R{6,34}
   + 13 R{6,35} <= 13
 R2_3: 3 R{1,0} + 3 R{1,1} + 3 R{1,2} + 3 R{1,7} + 3 R{1,10} + 3 R{1,11}
   + 3 R{1,12} + 3 R{1,17} + 3 R{1,18} + 3 R{1,22} + 3 R{1,23} + 3 R{1,25}
   + 3 R{2,14} + 3 R{2,28} + 3 R{2,35} + 3 R{2,36} + 3 R{4,11} + 3 R{4,12}
   + 3 R{4,25} + 3 R{4,27} + 3 R{4,30} + 3 R{4,31} + 3 R{5,4} + 3 R{5,5}
   + 3 R{5,6} + 3 R{5,13} + 3 R{5,18} + 3 R{5,23} + 3 R{6,14} + 3 R{6,24}
   + 3 R{6,32} + 3 R{6,34} <= 3
 R2_4: 9 R{1,4} + 9 R{1,5} + 9 R{5,0} + 9 R{5,1} + 9 R{5,19} + 9 R{5,22}
   + 9 R{5,25} + 9 R{5,26} <= 9
 R2_5: 4 R{0,4} + 4 R{1,17} + 4 R{2,24} + 4 R{2,28} + 4 R{2,35} + 4 R{2,36}
   + 4 R{5,0} + 4 R{5,1} + 4 R{5,2} + 4 R{5,16} + 4 R{5,22} + 4 R{5,23}
   + 4 R{5,25} + 4 R{5,26} <= 4
 R2_6: <= 0
 R2_7: 8 R{0,0} + 8 R{0,1} + 8 R{0,2} + 8 R{0,4} + 8 R{0,5} + 8 R{0,6}
   + 8 R{0,7} + 8 R{0,8} + 8 R{0,11} + 8 R{0,13} + 2 R{0,14} + 8 R{0,15}
   + 8 R{0,16} + 8 R{0,17} + 8 R{0,18} + 8 R{0,19} + 8 R{0,20} + 8 R{0,21}
   + 8 R{0,22} + 8 R{0,23} + 8 R{0,24} + 8 R{0,25} + 8 R{0,26} + 8 R{1,24}
   + 8 R{2,15} + 8 R{2,20} + 8 R{2,21} + 8 R{2,26} + 8 R{2,33} + 8 R{2,36}
   + 8 R{3,13} + 7 R{4,7} + 8 R{4,13} + 8 R{4,32} + 8 R{5,13} + 8 R{5,26}
   + 8 R{6,15} + 8 R{6,17} <= 8
 R2_8: 11 R{0,19} + 11 R{1,9} + 11 R{2,4} + 11 R{2,5} + 11 R{2,6}
   + 11 R{2,9} + 11 R{2,11} + 11 R{2,18} + 11 R{2,19} + 11 R{2,20}
   + 11 R{2,23} + 11 R{2,24} + 11 R{2,25} + 11 R{2,27} + 11 R{2,29}
   + 11 R{2,31} + 11 R{2,32} + 11 R{3,0} + 11 R{3,1} + 11 R{3,2}
   + 11 R{3,10} + 11 R{3,15} + 11 R{3,16} + 11 R{3,18} + 11 R{3,20}
   + 11 R{3,21} + 11 R{3,23} + 11 R{3,25} + 11 R{3,27} + 11 R{4,9}
   + 11 R{5,23} <= 11
 R2_9: 12 R{1,0} + 12 R{1,1} + 12 R{1,9} + 12 R{1,10} + 12 R{1,13}
   + 12 R{1,14} + 12 R{1,19} + 12 R{1,23} + 12 R{1,24} + 12 R{1,25}
   + 12 R{2,4} + 12 R{2,5} + 12 R{2,6} + 12 R{2,11} + 12 R{2,12}
   + 12 R{2,15} + 12 R{2,32} + 12 R{3,15} + 12 R{3,18} + 12 R{3,24}
   + 12 R{3,27} + 12 R{4,17} + 12 R{5,10} + 12 R{5,15} + 12 R{6,19} <= 12
 R2_10: 6 R{2,0} + 6 R{2,1} + 6 R{2,2} + 6 R{2,4} + 6 R{2,5} + 6 R{2,6}
   + 6 R{2,8} + 6 R{2,9} + 6 R{2,10} + 6 R{2,12} + 6 R{2,13} + 6 R{2,14}
   + 6 R{2,16} + 6 R{2,18} + 6 R{2,23} + 6 R{2,26} + 6 R{2,29} + 6 R{2,32}
   + 6 R{2,33} + 6 R{2,34} + 6 R{2,37} + 6 R{2,38} + 6 R{3,25} + 6 R{6,18}
   + 6 R{6,32} <= 6
 R2_11: <= 0
 R2_12: 15 R{1,0} + 15 R{1,1} + 15 R{1,2} + 15 R{1,7} + 15 R{1,9}
   + 10 R{1,11} + 10 R{1,14} + 15 R{1,15} + 10 R{1,17} + 15 R{1,18}
   + 15 R{1,19} + 15 R{1,20} + 15 R{1,22} + 15 R{1,23} + 10 R{1,24}
   + 15 R{1,25} + 15 R{2,12} + 15 R{2,13} + 15 R{2,26} + 15 R{2,31}
   + 15 R{2,33} + 10 R{2,35} + 15 R{2,37} + 15 R{3,4} + 15 R{3,5}
   + 15 R{3,6} + 15 R{3,12} + 15 R{3,16} + 15 R{3,22} + 10 R{3,23}
   + 10 R{3,24} + 10 R{3,27} + 10 R{3,28} + 15 R{4,11} + 15 R{4,20}
   + 15 R{4,32} + 15 R{5,11} + 15 R{5,16} + 15 R{6,12} + 15 R{6,32} <= 15
 R2_13: 8 R{3,1} + 8 R{3,10} + 8 R{4,1} + 8 R{4,9} + 8 R{6,0} + 8 R{6,1}
   + 8 R{6,4} + 8 R{6,5} + 8 R{6,9} + 8 R{6,15} + 8 R{6,20} + 8 R{6,21}
   + 8 R{6,22} + 8 R{6,23} + 8 R{6,25} + 8 R{6,26} + 8 R{6,27} + 8 R{6,28}
   + 8 R{6,29} + 8 R{6,30} + 8 R{6,31} + 8 R{6,33} + 8 R{6,34} + 8 R{6,35}
   <= 8
 R2_14: <= 0
 R2_15: 9 R{0,8} + 9 R{0,18} + 4 R{0,24} + 4 R{0,25} + 9 R{1,0} + 9 R{1,1}
   + 9 R{1,2} + 9 R{1,7} + 9 R{1,10} + 9 R{1,12} + 9 R{1,13} + 9 R{1,15}
   + 9 R{1,16} + 9 R{1,17} + 9 R{1,18} + 9 R{1,19} + 9 R{1,20} + 9 R{1,23}
   + 9 R{1,24} + 4 R{2,4} + 4 R{2,5} + 4 R{2,6} + 9 R{2,9} + 4 R{2,11}
   + 9 R{2,12} + 9 R{2,15} + 9 R{2,16} + 4 R{2,17} + 4 R{2,19} + 4 R{2,20}
   + 9 R{2,21} + 9 R{2,23} + 4 R{2,24} + 4 R{2,27} + 5 R{2,28} + 4 R{2,31}
   + 4 R{2,32} + 4 R{2,34} + 4 R{2,36} + 4 R{2,40} + 9 R{3,22} + 9 R{4,13}
   + 9 R{4,19} + 9 R{4,22} <= 9
 R2_16: 5 R{0,2} + 5 R{0,7} + 5 R{0,17} + 5 R{1,4} + 5 R{1,5} + 5 R{1,6}
   + 5 R{1,8} + 5 R{2,28} + 5 R{3,0} + 5 R{3,1} + 5 R{3,2} + 5 R{3,10}
   + 5 R{3,11} + 5 R{3,12} + 5 R{3,13} + 5 R{3,15} + 5 R{3,16} + 5 R{3,17}
   + 5 R{3,18} + 5 R{3,19} + 5 R{3,20} + 5 R{3,21} + 5 R{3,22} + 5 R{3,23}
   + 5 R{3,24} + 5 R{3,25} + 5 R{3,27} + 5 R{4,2} + 5 R{5,21} + 5 R{5,23}
   + 5 R{6,1} + 5 R{6,2} + 5 R{6,6} + 5 R{6,7} + 5 R{6,9} + 5 R{6,10}
   + 5 R{6,11} <= 5
 R2_17: 10 R{0,8} + 10 R{0,16} + 10 R{0,18} + 10 R{0,21} + 10 R{0,25}
   + 10 R{0,26} + 10 R{2,4} + 10 R{2,5} + 10 R{2,6} + 10 R{2,9}
   + 10 R{2,10} + 5 R{2,12} + 5 R{2,15} + 10 R{2,17} + 10 R{2,18}
   + 10 R{2,23} + 10 R{2,29} + 10 R{2,30} + 10 R{2,31} + 10 R{2,32}
   + 10 R{2,34} + 5 R{2,37} + 10 R{2,38} + 10 R{2,40} + 10 R{3,9}
   + 10 R{3,12} + 10 R{4,0} + 10 R{4,1} + 10 R{4,2} + 10 R{4,8} + 10 R{4,9}
   + 10 R{4,11} + 10 R{4,14} + 10 R{4,15} + 10 R{4,20} + 10 R{4,23}
   + 10 R{4,26} + 10 R{4,28} + 10 R{4,29} + 10 R{4,31} + 10 R{4,32}
   + 10 R{4,33} + 10 R{5,12} + 10 R{5,21} + 10 R{5,23} + 10 R{6,10}
   + 10 R{6,17} + 10 R{6,18} + 10 R{6,21} + 10 R{6,23} + 10 R{6,25}
   + 10 R{6,26} + 10 R{6,30} + 5 R{6,35} <= 10
 R2_18: 7 R{0,0} + 7 R{0,1} + 7 R{0,2} + 7 R{0,7} + 7 R{0,8} + 7 R{0,11}
   + 7 R{0,14} + 7 R{0,15} + 7 R{0,16} + 7 R{0,17} + 7 R{0,18} + 7 R{0,19}
   + 7 R{0,21} + 7 R{0,22} + 7 R{0,23} + 7 R{0,24} + 7 R{0,25} + 7 R{0,26}
   + 7 R{2,4} + 7 R{2,5} + 7 R{2,6} + 7 R{2,8} + 7 R{2,11} + 7 R{2,13}
   + 7 R{2,15} + 7 R{2,19} + 7 R{2,21} + 7 R{2,26} + 7 R{2,33} + 7 R{3,12}
   + 7 R{4,11} + 7 R{4,20} + 7 R{4,32} + 7 R{5,17} + 7 R{5,20} + 7 R{5,26}
   + 7 R{6,1} + 7 R{6,2} + 7 R{6,13} + 7 R{6,24} + 6 R{6,25} + 7 R{6,32}
   <= 7
 R2_19: <= 0
 R2_20: 12 R{1,10} + 12 R{1,12} + 12 R{1,15} + 12 R{1,16} + 12 R{1,20}
   + 12 R{1,21} + 12 R{1,24} + 12 R{2,0} + 12 R{2,1} + 12 R{2,2}
   + 12 R{2,6} + 12 R{2,19} + 12 R{2,29} + 12 R{2,30} + 12 R{2,32}
   + 12 R{2,33} + 12 R{2,39} + 12 R{2,40} + 12 R{3,1} + 12 R{3,2}
   + 12 R{3,6} + 12 R{3,21} + 12 R{3,26} + 12 R{4,1} + 12 R{4,2}
   + 12 R{4,6} + 12 R{4,29} + 12 R{4,30} + 12 R{4,31} + 12 R{5,2}
   + 12 R{5,6} + 12 R{6,1} + 12 R{6,2} + 12 R{6,4} + 12 R{6,5} + 12 R{6,6}
   <= 12
 R2_21: 10 R{0,21} + 10 R{1,6} + 10 R{1,17} + 10 R{2,11} + 10 R{2,30}
   + 10 R{2,31} + 10 R{3,1} + 10 R{3,2} + 10 R{3,7} + 10 R{3,10}
   + 10 R{4,28} + 10 R{5,9} + 10 R{5,10} + 10 R{5,21} + 10 R{5,23}
   + 10 R{6,0} + 10 R{6,1} + 10 R{6,2} + 10 R{6,4} + 10 R{6,5} + 10 R{6,6}
   + 10 R{6,7} + 10 R{6,10} + 10 R{6,11} + 10 R{6,18} + 10 R{6,28}
   + 10 R{6,29} + 10 R{6,30} + 10 R{6,34} + 10 R{6,35} <= 10
 R2_22: 10 R{0,1} + 10 R{0,2} + 10 R{0,5} + 10 R{0,24} + 10 R{1,2}
   + 10 R{1,5} + 10 R{1,6} + 10 R{2,1} + 10 R{2,2} + 10 R{2,4} + 10 R{2,5}
   + 10 R{2,6} + 10 R{2,12} + 10 R{2,15} + 10 R{2,16} + 10 R{2,22}
   + 10 R{2,33} + 10 R{2,34} + 10 R{2,37} + 10 R{3,1} + 10 R{3,2}
   + 10 R{3,5} + 10 R{3,6} + 10 R{3,14} + 10 R{3,26} + 10 R{4,1}
   + 10 R{4,2} + 10 R{5,1} + 10 R{5,2} + 10 R{5,5} + 10 R{5,6} + 10 R{6,0}
   + 10 R{6,1} + 10 R{6,2} + 10 R{6,5} + 10 R{6,6} + 10 R{6,16}
   + 10 R{6,20} + 10 R{6,23} + 10 R{6,26} + 10 R{6,27} + 10 R{6,28}
   + 10 R{6,31} + 10 R{6,33} + 10 R{6,34} + 10 R{6,35} <= 10
 R2_23: 11 R{0,0} + 11 R{0,1} + 11 R{0,2} + 11 R{0,7} + 11 R{0,9}
   + 11 R{0,12} + 11 R{0,13} + 11 R{0,14} + 11 R{0,16} + 11 R{0,17}
   + 11 R{0,19} + 11 R{0,21} + 11 R{0,23} + 11 R{0,24} + 11 R{0,25}
   + 11 R{0,26} + 11 R{1,4} + 11 R{1,5} + 11 R{1,6} + 11 R{1,8} + 11 R{1,9}
   + 11 R{1,10} + 11 R{1,14} + 11 R{1,17} + 11 R{1,19} + 11 R{1,25}
   + 11 R{2,8} + 11 R{2,17} + 11 R{2,25} + 11 R{2,34} + 11 R{2,39}
   + 11 R{4,18} + 11 R{4,34} + 11 R{5,10} + 11 R{5,21} + 11 R{6,7}
   + 11 R{6,12} <= 11
 R2_24: 10 R{2,4} + 10 R{2,5} + 10 R{2,6} + 10 R{2,8} + 10 R{2,16}
   + 10 R{2,18} + 10 R{2,23} + 10 R{2,25} + 10 R{2,32} + 10 R{2,34}
   + 10 R{3,0} + 10 R{3,1} + 10 R{3,2} + 10 R{3,11} + 10 R{3,14}
   + 10 R{3,20} + 10 R{3,21} + 10 R{3,25} + 10 R{4,27} + 10 R{4,33}
   + 10 R{4,34} + 10 R{5,10} + 10 R{5,14} + 10 R{5,24} + 10 R{6,12}
   + 10 R{6,18} + 10 R{6,22} + 8 R{6,24} + 9 R{6,25} + 10 R{6,26}
   + 10 R{6,30} + 10 R{6,31} + 8 R{6,32} + 10 R{6,33} <= 10
 R2_25: 10 R{0,20} + 10 R{0,22} + 10 R{0,23} + 5 R{0,24} + 10 R{1,0}
   + 10 R{1,1} + 10 R{1,2} + 10 R{1,11} + 10 R{1,13} + 10 R{1,15}
   + 10 R{1,16} + 10 R{1,18} + 10 R{1,19} + 10 R{1,20} + 10 R{1,21}
   + 10 R{1,23} + 10 R{1,24} + 10 R{1,25} + 5 R{2,22} + 5 R{2,33}
   + 10 R{4,4} + 10 R{4,5} + 10 R{4,6} + 10 R{4,13} + 10 R{4,23}
   + 10 R{4,24} + 10 R{4,25} + 10 R{4,30} + 7 R{4,34} + 10 R{6,22}
   + 10 R{6,25} + 5 R{6,27} + 10 R{6,31} + 5 R{6,33} <= 10
 R2_26: 6 R{1,10} + 6 R{1,12} + 6 R{1,19} + 6 R{2,0} + 6 R{2,1} + 6 R{2,10}
   + 6 R{2,11} + 6 R{2,13} + 6 R{2,19} + 6 R{2,20} + 6 R{2,28} + 6 R{2,29}
   + 6 R{2,30} + 6 R{2,31} + 6 R{2,33} + 6 R{2,35} + 6 R{2,38} + 6 R{2,40}
   + 6 R{4,11} + 6 R{4,32} + 6 R{5,4} + 6 R{5,5} + 6 R{5,16} + 3 R{6,24}
   + 6 R{6,33} <= 6
 R2_27: 6 R{0,14} + 6 R{1,7} + 6 R{1,9} + 6 R{2,9} + 6 R{2,16} + 6 R{2,18}
   + 6 R{2,19} + 6 R{2,23} + 6 R{2,25} + 6 R{2,29} + 6 R{2,30} + 6 R{2,34}
   + 6 R{2,38} + 6 R{3,14} + 6 R{3,26} + 6 R{4,0} + 6 R{4,1} + 6 R{4,2}
   + 6 R{4,4} + 6 R{4,5} + 6 R{4,6} + 6 R{4,9} + 6 R{4,12} + 6 R{4,13}
   + 6 R{4,14} + 6 R{4,15} + 6 R{4,19} + 6 R{4,23} + 6 R{4,25} + 6 R{4,26}
   + 6 R{4,27} + 6 R{4,28} + 6 R{4,29} + 6 R{4,30} + 6 R{4,31} + 6 R{4,33}
   + 6 R{5,7} + 6 R{5,14} + 6 R{5,17} + 6 R{5,20} + 6 R{5,24} + 6 R{5,26}
   + 6 R{5,27} + 6 R{6,9} + 6 R{6,16} + 6 R{6,18} + 6 R{6,21} + 6 R{6,22}
   + 6 R{6,25} + 6 R{6,26} + 6 R{6,27} + 6 R{6,30} + 6 R{6,31} + 6 R{6,33}
   <= 6
 R2_28: 9 R{0,4} + 9 R{0,5} + 9 R{0,10} + 9 R{0,26} + 9 R{2,7} + 9 R{2,20}
   + 9 R{2,31} + 9 R{2,36} + 9 R{2,38} + 9 R{3,0} + 9 R{3,1} + 9 R{3,2}
   + 9 R{3,7} + 9 R{3,10} + 9 R{3,11} + 9 R{3,12} + 9 R{3,13} + 9 R{3,14}
   + 9 R{3,15} + 9 R{3,16} + 9 R{3,17} + 9 R{3,18} + 9 R{3,19} + 9 R{3,20}
   + 9 R{3,22} + 9 R{3,23} + 9 R{3,24} + 9 R{3,25} + 9 R{3,26} + 9 R{3,27}
   + 9 R{3,28} + 9 R{4,15} + 9 R{4,25} + 9 R{4,32} + 9 R{4,33} + 9 R{5,27}
   + 9 R{6,7} + 9 R{6,8} + 9 R{6,13} + 9 R{6,17} + 9 R{6,24} + 9 R{6,32}
   + 9 R{6,33} <= 9
 R2_29: 11 R{0,0} + 11 R{0,1} + 11 R{0,9} + 11 R{0,12} + 11 R{0,14}
   + 11 R{0,15} + 11 R{0,16} + 11 R{0,18} + 11 R{0,20} + 11 R{0,21}
   + 11 R{0,23} + 11 R{0,24} + 11 R{0,25} + 11 R{0,26} + 11 R{1,8}
   + 11 R{1,21} + 11 R{1,22} + 11 R{2,4} + 11 R{2,5} + 11 R{2,6}
   + 11 R{2,9} + 11 R{2,11} + 11 R{2,12} + 11 R{2,15} + 11 R{2,17}
   + 11 R{2,19} + 11 R{2,20} + 11 R{2,24} + 11 R{2,27} + 10 R{2,28}
   + 11 R{2,31} + 11 R{2,32} + 11 R{2,34} + 11 R{2,35} + 11 R{2,36}
   + 11 R{2,40} + 11 R{3,28} + 11 R{4,11} + 11 R{4,29} <= 11
 R2_30: 9 R{0,6} + 7 R{0,8} + 7 R{0,16} + 7 R{0,21} + 7 R{0,26} + 9 R{1,8}
   + 9 R{1,12} + 9 R{2,9} + 9 R{2,12} + 9 R{2,16} + 9 R{2,22} + 9 R{2,25}
   + 9 R{2,37} + 9 R{3,8} + 9 R{3,14} + 9 R{4,9} + 9 R{4,10} + 9 R{4,11}
   + 9 R{4,14} + 9 R{4,20} + 9 R{4,23} + 9 R{4,24} + 9 R{4,26} + 9 R{4,28}
   + 8 R{4,32} + 9 R{4,34} + 9 R{5,10} + 9 R{5,13} + 9 R{5,18} + 8 R{5,20}
   + 9 R{5,21} + 9 R{5,23} + 9 R{5,24} + 8 R{5,26} + 9 R{5,27} + 9 R{6,4}
   + 9 R{6,5} + 9 R{6,6} + 9 R{6,8} + 9 R{6,10} + 9 R{6,12} + 9 R{6,16}
   + 9 R{6,18} + 9 R{6,21} + 9 R{6,22} + 9 R{6,23} + 9 R{6,25} + 9 R{6,26}
   + 9 R{6,27} + 9 R{6,30} + 9 R{6,31} <= 9
 R2_31: 11 R{0,13} + 11 R{0,15} + 11 R{0,20} + 11 R{0,22} + 7 R{0,23}
   + 11 R{1,11} + 11 R{1,14} + 11 R{1,15} + 11 R{1,16} + 11 R{1,18}
   + 11 R{1,20} + 11 R{1,21} + 11 R{1,23} + 11 R{2,21} + 11 R{2,26}
   + 11 R{2,27} + 11 R{2,28} + 5 R{2,33} + 11 R{2,35} + 11 R{2,36}
   + 11 R{3,18} + 11 R{3,19} + 11 R{3,24} + 11 R{3,27} + 11 R{4,4}
   + 11 R{4,5} + 11 R{4,6} + 11 R{4,7} + 11 R{4,10} + 11 R{4,12}
   + 11 R{4,13} + 11 R{4,16} + 11 R{4,17} + 11 R{4,18} + 11 R{4,19}
   + 11 R{4,21} + 11 R{4,22} + 11 R{4,24} + 11 R{4,25} + 11 R{4,27}
   + 11 R{4,30} + 11 R{4,34} + 11 R{6,20} + 5 R{6,27} + 11 R{6,31}
   + 5 R{6,33} <= 11
 R2_32: 5 R{0,6} + 5 R{0,7} + 5 R{0,10} + 5 R{0,12} + 5 R{1,10} + 5 R{1,11}
   + 5 R{1,12} + 5 R{1,13} + 5 R{1,14} + 5 R{1,16} + 5 R{1,17} + 5 R{1,21}
   + 5 R{1,24} + 5 R{2,4} + 5 R{2,5} + 5 R{2,8} + 5 R{2,11} + 5 R{2,12}
   + 5 R{2,15} + 5 R{2,17} + 5 R{2,19} + 5 R{2,20} + 5 R{2,21} + 5 R{2,22}
   + 5 R{2,24} + 5 R{2,27} + 5 R{2,28} + 5 R{2,32} + 5 R{2,35} + 5 R{2,36}
   + 5 R{2,37} + 5 R{2,39} + 5 R{3,10} + 5 R{3,13} + 5 R{3,17} + 5 R{3,18}
   + 5 R{3,19} + 5 R{3,20} + 5 R{3,23} + 5 R{3,24} + 5 R{3,27} + 5 R{3,28}
   + 5 R{4,9} + 5 R{4,16} + 5 R{5,10} + 5 R{5,12} + 5 R{5,15} + 5 R{5,18}
   + 5 R{5,19} + 5 R{5,21} + 5 R{5,23} + 5 R{6,8} + 5 R{6,11} + 5 R{6,13}
   + 5 R{6,14} + 5 R{6,17} + 5 R{6,24} <= 5
 R2_33: 8 R{0,6} + 8 R{0,10} + 8 R{0,11} + 8 R{0,13} + 8 R{0,14}
   + 8 R{0,15} + 8 R{0,18} + 8 R{0,20} + 8 R{0,22} + 8 R{0,23} + 8 R{0,24}
   + 8 R{0,25} + 8 R{1,7} + 8 R{1,13} + 8 R{1,16} + 5 R{1,17} + 8 R{1,21}
   + 8 R{1,22} + 8 R{1,24} + 8 R{2,8} + 8 R{2,17} + 8 R{2,21} + 8 R{2,22}
   + 8 R{2,26} + 8 R{2,27} + 8 R{2,28} + 8 R{2,33} + 8 R{2,35} + 8 R{2,36}
   + 8 R{2,38} + 8 R{4,4} + 8 R{4,5} + 8 R{4,6} + 8 R{4,7} + 8 R{4,8}
   + 8 R{4,11} + 8 R{4,12} + 8 R{4,13} + 8 R{4,16} + 8 R{4,17} + 8 R{4,18}
   + 8 R{4,19} + 8 R{4,20} + 8 R{4,21} + 8 R{4,22} + 8 R{4,25} + 8 R{4,27}
   + 8 R{4,30} + 8 R{4,32} + 8 R{4,34} + 8 R{5,7} + 8 R{5,8} + 8 R{5,14}
   + 8 R{5,19} + 8 R{5,22} + 8 R{6,27} <= 8
 R2_34: 8 R{0,8} + 8 R{0,9} + 8 R{0,11} + 8 R{0,13} + 8 R{0,15} + 8 R{0,18}
   + 8 R{0,20} + 8 R{0,22} + 8 R{0,23} + 5 R{0,24} + 8 R{1,12} + 5 R{2,15}
   + 8 R{2,21} + 5 R{2,22} + 8 R{2,24} + 8 R{2,26} + 8 R{2,28} + 8 R{2,31}
   + 8 R{2,32} + 5 R{2,33} + 5 R{2,34} + 8 R{3,17} + 8 R{3,19} + 8 R{3,22}
   + 8 R{4,4} + 8 R{4,5} + 8 R{4,6} + 8 R{4,7} + 8 R{4,8} + 8 R{4,10}
   + 8 R{4,11} + 8 R{4,12} + 8 R{4,16} + 8 R{4,17} + 8 R{4,18} + 8 R{4,19}
   + 8 R{4,21} + 8 R{4,22} + 8 R{4,24} + 8 R{4,25} + 8 R{4,26} + 8 R{4,27}
   + 8 R{4,29} + 8 R{4,30} + 8 R{4,34} + 8 R{6,2} + 8 R{6,10} + 8 R{6,14}
   + 8 R{6,15} + 8 R{6,18} + 8 R{6,19} + 8 R{6,22} + 8 R{6,25} + 5 R{6,27}
   + 8 R{6,29} + 8 R{6,30} <= 8
Bounds
End
